100 10
98 98
71 46
20 49
99 6
82 93
86 84
19 70
70 70
78 98
12 28
38 96
15 75
97 44
57 15
24 79
12 7
5 38
92 74
21 86
53 64
82 91
19 10
17 15
89 57
15 43
66 94
4 50
65 80
4 81
59 81
22 7
9 2
35 56
68 34
86 5
41 78
35 9
48 42
13 64
70 73
25 16
11 20
26 19
1 1
48 54
39 23
28 22
88 47
54 69
9 81
89 28
23 43
84 63
79 42
66 14
7 12
100 2
23 34
3 99
78 44
42 72
89 10
27 89
39 18
65 45
21 25
43 61
98 67
41 48
41 1
43 35
72 21
50 57
26 64
55 49
60 9
55 5
40 65
20 44
49 61
1 90
90 93
83 56
5 58
84 99
45 33
93 100
77 73
58 89
90 30
25 22
13 49
80 39
23 14
13 67
65 41
56 96
2 26
12 50
72 75
395 457
426 491
359 405
500 598
522 587
438 510
527 640
530 606
426 500
510 573
